<?xml version = "1.0" encoding="UTF-8" standalone="yes"?>
<CPLEXSolution version="1.2">
 <header
   problemName="IloCplex"
   solutionName="p0"
   solutionIndex="-1"
   objectiveValue="321062"
   solutionTypeValue="3"
   solutionTypeString="primal"
   solutionStatusValue="127"
   solutionStatusString="integer feasible solution"
   solutionMethodString="mip"
   primalFeasible="0"
   dualFeasible="0"
   writeLevel="3"/>
 <quality
   epInt="1.0000000000000001e-05"
   epRHS="9.9999999999999995e-07"
   maxIntInfeas="0"
   maxPrimalInfeas="0"
   maxX="646"
   maxSlack="546"/>
 <variables>
  <variable index="0" value="646"/>
  <variable index="4" value="646"/>
  <variable index="5" value="646"/>
  <variable index="6" value="646"/>
  <variable index="7" value="646"/>
  <variable index="8" value="646"/>
  <variable index="23" value="1"/>
  <variable index="177" value="1"/>
  <variable index="282" value="1"/>
  <variable index="349" value="1"/>
  <variable index="485" value="1"/>
  <variable index="562" value="1"/>
  <variable index="617" value="1"/>
  <variable index="764" value="1"/>
  <variable index="843" value="1"/>
  <variable index="939" value="1"/>
  <variable index="1105" value="1"/>
  <variable index="1129" value="1"/>
  <variable index="1283" value="1"/>
  <variable index="1312" value="1"/>
  <variable index="1490" value="1"/>
  <variable index="1567" value="1"/>
  <variable index="1635" value="1"/>
  <variable index="1744" value="1"/>
  <variable index="1870" value="1"/>
  <variable index="2004" value="1"/>
  <variable index="2100" value="1"/>
  <variable index="2124" value="1"/>
  <variable index="2268" value="1"/>
  <variable index="2336" value="1"/>
  <variable index="2432" value="1"/>
  <variable index="2516" value="1"/>
  <variable index="2645" value="1"/>
  <variable index="2761" value="1"/>
  <variable index="2897" value="1"/>
  <variable index="2996" value="1"/>
  <variable index="3060" value="1"/>
  <variable index="3125" value="1"/>
  <variable index="3228" value="1"/>
  <variable index="3320" value="1"/>
  <variable index="3475" value="1"/>
  <variable index="3563" value="1"/>
  <variable index="3610" value="1"/>
  <variable index="3742" value="1"/>
  <variable index="3886" value="1"/>
  <variable index="3946" value="1"/>
  <variable index="4048" value="1"/>
  <variable index="4131" value="1"/>
  <variable index="4238" value="1"/>
  <variable index="4381" value="1"/>
  <variable index="4451" value="1"/>
  <variable index="4572" value="1"/>
  <variable index="4680" value="1"/>
  <variable index="4773" value="1"/>
  <variable index="4837" value="1"/>
  <variable index="4927" value="1"/>
  <variable index="5047" value="1"/>
  <variable index="5208" value="1"/>
  <variable index="5287" value="1"/>
  <variable index="5330" value="1"/>
  <variable index="5413" value="1"/>
  <variable index="5609" value="1"/>
  <variable index="5652" value="1"/>
  <variable index="5801" value="1"/>
  <variable index="5878" value="1"/>
  <variable index="5940" value="1"/>
  <variable index="6099" value="1"/>
  <variable index="6154" value="1"/>
  <variable index="6219" value="1"/>
  <variable index="6357" value="1"/>
  <variable index="6422" value="1"/>
  <variable index="6559" value="1"/>
  <variable index="6702" value="1"/>
  <variable index="6788" value="1"/>
  <variable index="6889" value="1"/>
  <variable index="6934" value="1"/>
  <variable index="7055" value="1"/>
  <variable index="7193" value="1"/>
  <variable index="7233" value="1"/>
  <variable index="7395" value="1"/>
  <variable index="7494" value="1"/>
  <variable index="7592" value="1"/>
  <variable index="7698" value="1"/>
  <variable index="7711" value="1"/>
  <variable index="7841" value="1"/>
  <variable index="8006" value="1"/>
  <variable index="8065" value="1"/>
  <variable index="8191" value="1"/>
  <variable index="8221" value="1"/>
  <variable index="8374" value="1"/>
  <variable index="8450" value="1"/>
  <variable index="8569" value="1"/>
  <variable index="8684" value="1"/>
  <variable index="8807" value="1"/>
  <variable index="8866" value="1"/>
  <variable index="8976" value="1"/>
  <variable index="9026" value="1"/>
  <variable index="9153" value="1"/>
  <variable index="9303" value="1"/>
  <variable index="9314" value="1"/>
  <variable index="9456" value="1"/>
  <variable index="9579" value="1"/>
  <variable index="9615" value="1"/>
  <variable index="9758" value="1"/>
  <variable index="9818" value="1"/>
  <variable index="9971" value="1"/>
  <variable index="10010" value="1"/>
  <variable index="10014" value="1"/>
  <variable index="10015" value="1"/>
  <variable index="10016" value="1"/>
  <variable index="10017" value="1"/>
  <variable index="10018" value="1"/>
  <variable index="10020" value="646"/>
 </variables>
</CPLEXSolution>
